unsat
(:SPACER-conj                         54
 :SPACER-inductive-gen                62
 :SPACER-inductive-gen-weaken-fail    62
 :SPACER-inductive-gen-weaken-success 56
 :SPACER-inductive-level              52
 :SPACER-max-depth                    52
 :SPACER-max-query-lvl                52
 :SPACER-non-local-gen                1324
 :SPACER-num-active-lemmas            106
 :SPACER-num-ctp-blocked              49
 :SPACER-num-invariants               54
 :SPACER-num-is_invariant             5447
 :SPACER-num-lemma-jumped             13
 :SPACER-num-lemmas                   1437
 :SPACER-num-pobs                     109
 :SPACER-num-propagations             2745
 :SPACER-num-queries                  1380
 :added-eqs                           8689656
 :arith-assert-diseq                  1304304
 :arith-assert-lower                  3908320
 :arith-assert-upper                  26933300
 :arith-bound-prop                    386464
 :arith-conflicts                     3184
 :arith-eq-adapter                    1352710
 :arith-fixed-eqs                     1610946
 :arith-num-rows                      988
 :arith-offset-eqs                    456894
 :arith-pivots                        312458
 :arith-row-summations                3153506
 :arith-tableau-max-columns           1810
 :arith-tableau-max-rows              988
 :conflicts                           27100
 :decisions                           12008724
 :del-clause                          3476346
 :final-checks                        8382
 :iuc_solver.num_proxies              2818
 :max-memory                          170.53
 :memory                              162.94
 :minimized-lits                      162962
 :mk-bool-var                         3871750
 :mk-clause                           3558264
 :num-allocs                          1295412045642.00
 :num-checks                          22488
 :pool_solver.checks                  11244
 :pool_solver.checks.sat              106
 :pool_solver.checks.undef            4085
 :propagations                        45582812
 :rlimit-count                        168963647
 :time                                117.77
 :time.iuc_solver.get_iuc             7.51
 :time.iuc_solver.get_iuc.hyp_reduce1 3.41
 :time.iuc_solver.get_iuc.hyp_reduce2 5.44
 :time.iuc_solver.get_iuc.learn_core  0.42
 :time.pool_solver.proof              0.95
 :time.pool_solver.smt.total          94.72
 :time.pool_solver.smt.total.sat      0.12
 :time.pool_solver.smt.total.undef    52.68
 :time.spacer.ctp                     0.00
 :time.spacer.init_rules              0.00
 :time.spacer.mbp                     0.54
 :time.spacer.solve                   117.51
 :time.spacer.solve.propagate         65.67
 :time.spacer.solve.reach             51.84
 :time.spacer.solve.reach.children    2.16
 :time.spacer.solve.reach.cluster     5.01
 :time.spacer.solve.reach.gen.global  0.52
 :time.spacer.solve.reach.gen.ind     2.03
 :time.spacer.solve.reach.is-reach    0.10)
(:max-memory   170.53
 :memory       162.94
 :num-allocs   1295412045642.00
 :rlimit-count 168963647
 :time         117.77
 :total-time   117.78)
